Route 1: 0 41 12 9 37 14 85 77 13 21 7 82 0
Route 2: 0 24 72 19 73 20 78 47 64 79 18 100 0
Route 3: 0 2 46 70 10 57 59 86 4 0
Route 4: 0 92 97 56 54 80 67 33 69 74 94 0
Route 5: 0 84 53 1 36 42 22 60 27 34 58 65 3 0
Route 6: 0 25 96 93 90 39 89 98 26 6 0
Route 7: 0 32 38 43 11 66 48 61 8 40 30 0
Route 8: 0 5 51 83 50 17 55 44 0
Route 9: 0 68 29 88 15 81 35 16 0
Route 10: 0 28 63 45 71 49 99 62 52 87 0
Route 11: 0 91 31 75 23 95 76 0
